120
150
43
50
57
41
60
54
50
46
50
59
52
57
49
58
48
43
53
41
55
41
53
49
57
44
57
50
49
47
54
52
49
43
55
50
43
53
53
50
43
47
42
54
55
47
41
50
54
50
54
46
55
51
46
53
57
51
44
57
57
44
55
52
49
49
56
60
45
49
55
52
43
49
48
42
53
47
40
45
58
59
49
53
45
52
51
55
51
41
54
43
42
49
59
55
44
55
45
48
45
42
57
59
45
46
57
48
53
45
54
40
50
59
55
43
45
41
50
59
47
44
